n = 50;
C = 5649;
w = [334,349,109,252,225,148,365,282,40,84,391,44,142,306,286,369,378,370,400,33,37,496,112,92,491,427,138,20,50,257,230,391,435,101,245,178,19,152,7,397,155,117,227,164,448,90,161,231,240,284];
p = [341,362,61,254,241,147,391,318,23,35,383,21,107,273,323,401,341,362,431,41,35,505,126,87,504,446,161,-6,0,239,264,361,473,75,258,168,7,128,-38,351,176,133,276,162,495,56,185,200,254,278];
